

atom_style full
units lj

variable Ni equal   1000

pair_style lj/cut 2.5

processors * * * grid numa
read_data        lammps_data.lmps

pair_coeff 1 1 1.0 1.0
pair_modify shift yes


mass 1 39.948

neighbor 0.25 bin
neigh_modify delay 0 every 10 check no




timestep 0.001



fix     1 all nve

run 1000
write_dump all xyz lammps_out.xyz
